HUN,8,6,15
2,10,3,10,1,30,0,27,5,1,4,12
2,10,0,16,4,1,3,29,1,18,5,9
5,5,2,8,3,7,0,26,1,21,4,1
1,15,5,27,2,24,3,19,0,3,4,5
2,25,0,9,4,5,1,5,3,12,5,24
2,2,1,2,3,22,0,8,4,10,5,16
2,11,3,17,4,5,5,13,0,12,1,28
4,8,5,17,0,11,3,26,1,4,2,8
